CPXPARAM_TimeLimit                               3600
CPXPARAM_Read_DataCheck                          1
Tried aggregator 1 time.
MIP Presolve eliminated 3460 rows and 0 columns.
MIP Presolve modified 6194 coefficients.
Reduced MIP has 157320 rows, 72601 columns, and 746972 nonzeros.
Reduced MIP has 3800 binaries, 0 generals, 0 SOSs, and 0 indicators.
Presolve time = 0.12 sec. (208.57 ticks)
Found incumbent of value 17682.000000 after 0.26 sec. (382.23 ticks)
Probing fixed 0 vars, tightened 1 bounds.
Probing time = 0.03 sec. (33.12 ticks)
Tried aggregator 1 time.
Reduced MIP has 157320 rows, 72601 columns, and 746972 nonzeros.
Reduced MIP has 3800 binaries, 0 generals, 0 SOSs, and 0 indicators.
Presolve time = 0.29 sec. (301.60 ticks)
Probing time = 0.03 sec. (32.22 ticks)
MIP emphasis: balance optimality and feasibility.
MIP search method: dynamic search.
Parallel mode: deterministic, using up to 8 threads.
Root relaxation solution time = 437.58 sec. (119733.11 ticks)

        Nodes                                         Cuts/
   Node  Left     Objective  IInf  Best Integer    Best Bound    ItCnt     Gap

*     0+    0                        17682.0000     1319.0000            92.54%
*     0+    0                        17369.0000     1319.0000            92.41%
      0     0     1319.0000  3230    17369.0000     1319.0000   144759   92.41%
      0     0     1325.1395  2912    17369.0000    Cuts: 3387   206518   92.37%

Implied bound cuts applied:  780
Flow cuts applied:  628
Mixed integer rounding cuts applied:  2574
Gomory fractional cuts applied:  4

Root node processing (before b&c):
  Real time             = 3600.09 sec. (2177473.71 ticks)
Parallel b&c, 8 threads:
  Real time             =    0.00 sec. (0.00 ticks)
  Sync time (average)   =    0.00 sec.
  Wait time (average)   =    0.00 sec.
                          ------------
Total (root+branch&cut) = 3600.09 sec. (2177473.71 ticks)
